letting n =  10
letting blocks =  [[1, 1], [1, 8], [1, 10], [2, 1], [2, 2], [2, 5], [2, 6], [2, 7], [2, 9], [3, 3], [3, 10], [4, 2], [4, 4], [4, 5], [4, 6], [4, 7], [4, 9], [5, 1], [5, 2], [5, 3], [5, 6], [5, 8], [5, 9], [6, 1], [6, 3], [6, 4], [6, 6], [6, 10], [7, 2], [7, 3], [7, 6], [7, 8], [7, 9], [8, 2], [8, 5], [8, 10], [9, 1], [9, 3], [9, 6], [9, 7], [9, 8], [9, 9], [10, 1], [10, 2], [10, 4], [10, 5], [10, 7], [10, 8]]
